7.9	7.8	7.9	7.8
8	8	8	8
42.7	42.8	42.7	43
43	43	43	43
48	48	48	48
80	80	80	80
96	96	96	96
98.8	98.9	99	98.8
103	103	103	103
103	103	103	103
110	110	110	110
111	111	111	111
112	112	112	112
114	114	114	114
127	127	127	127
128	128	128	128
138	138	138	138
138	138	138	138
141	141	141	141
137.1	137.1	137.1	137.6
144	144	144	144
149	149	149	149
155	155	155	155
156	156	156	156
160	160	160	160
145.7	145.5	145.5	145.6
164	164	164	164
164	164	164	164
166	166	166	166
173	173	173	173
174	174	174	174
175	175	175	175
135	135	135	134.9
176	176	176	176
172.5	172.2	172.3	172.4
168.8	169	168.7	168.8
182	182	182	182
186.9	187	187	187
189	189	189	189
191	191	191	191
191	191	191	191
195	195	195	195
196	196	196	196
198	198	198	198
198	198	198	198
198	198	198	198
199	199	199	199
201	201	201	201
202	202	202	202
203	203	203	203
205	205	205	205
207	207	207	207
207	207	207	207
207	207.2	207.5	207.2
208	208	208	208
211	211	211	211
211	211	211	211
212	212	212	212
213	213	213	213
214	214	214	214
215	215	215	215
216	216	216	216
217	217	217	217
217	217	217	217
180.9	180.9	180.9	181
218	218	218	218
219	219	219	219
220	220	220	220
220	220	220	220
222	222	222	222
223	223	223	223
223	223	223	223
225	225	225	225
226	226	226	226
226	226	226	226
229	229	229	229
243	243	243	243
246	246	246	246
247	247	247	247
250	250	250	250
262	262	262	262
278	278	278	278
287	287	287	287
296	296	296	296
299	299	299	299
300	300	300	300
301	301	301	301
304	304	304	304
304	304	304	304
304	304	304	304
307	307	307	307
308	308	308	308
308	308	308	308
306.5	307.2	306.2	306.5
310	310	310	310
315	315	315	315
281	280.9	280.9	280.8
317	317	317	317
317	317	317	317
318	318	318	318
319	319	319	319
324	324	324	324
325	325	325	325
325	325	325	325
329	329	329	329
329	329	329	329
331	331	331	331
332	332	332	332
333	333	333	333
330	330	330	330
335	335	335	335
336	336	336	336
340	340	340	340
343	343	343	343
280.9	280.8	280.9	280.7
341.3	341.6	341.3	341.5
340.8	340.7	340.7	340.6
347	347	347	347
346	346	346	346
346	346	346	346
348	348	348	348
350	350	350	350
351	351	351	351
352	352	352	352
352	352	352	352
352	352	352	352
353	353	353	353
354	354	354	354
354	354	354	354
327	327	327	327
356	356	356	356
356	356	356	356
357	357	357	357
358	358	358	358
357	357	357	357
360	360	360	360
365	365	365	364.7
330.6	330.8	330.6	330.5
365.1	365.8	365.3	365.6
363.5	364.4	364.1	366.3
369	369	369	369
370	370	370	370
370	370	370	370
371	371	371	371
362.2	362.8	362.2	362.7
319	319	318.9	319
371	371	371	371
365.4	365.8	365.9	365.8
372	372	372	372
373	373	373	373
373	373	373	373
346.8	345.7	346.3	346.2
375	375	375	375
375	375	375	375
376	376	376	376
376	376	376	376
376	376	376	376
377	377	377	377
377	377	377	377
380	380	380	380
380	380	380	380
381	381	381	381
381	381	381	381
382	382	382	382
348.8	349	348.9	349
382	382	382	382
383	383	383	383
383	383	383	383
384	384	384	384
385	385	385	385
386	386	386	386
383.6	384.6	384.4	383.7
387	387	387	387
388	388	388	388
388	388	388	388
388	388	388	388
390	390	390	390
392	392	392	392
393	393	393	393
394	394	394	394
396	396	396	396
397	397	397	397
400	400	400	400
402	402	402	402
403	403	403	403
395.8	394.9	394.1	393.7
406	406	406	406
406	406	406	406
408	408	408	408
408	408	408	408
411	411	411	411
599	599	599	599
749	749	749	749
0	0	0	0
